; SPDX-License-Identifier: MPL-2.0
; Copyright (c) 2026 The RIINA Authors.
; Auto-generated from 02_FORMAL/coq/domains/VerifiedCompliance.v (35 validations)
; Generated by scripts/generate-full-stack.py
;
; Translation Validation for VerifiedCompliance
; Layer 9: Verifies compiler backend preserves formal semantics.
; Each assertion checks source IR ≡ target code for a proven property.

(set-logic QF_LIA)
(set-option :produce-models true)

; IR node representation
(declare-sort IRNode 0)
(declare-sort TargetNode 0)

; is_gap: source semantics (matches Coq)
(declare-fun source_is_gap () Bool)
(declare-fun target_is_gap () Bool)
(assert (= source_is_gap target_is_gap))

; is_partial: source semantics (matches Coq)
(declare-fun source_is_partial () Bool)
(declare-fun target_is_partial () Bool)
(assert (= source_is_partial target_is_partial))

; is_proven: source semantics (matches Coq)
(declare-fun source_is_proven () Bool)
(declare-fun target_is_proven () Bool)
(assert (= source_is_proven target_is_proven))

; data_minimization_holds: source semantics (matches Coq)
(declare-fun source_data_minimization_holds () Bool)
(declare-fun target_data_minimization_holds () Bool)
(assert (= source_data_minimization_holds target_data_minimization_holds))

; purpose_limitation_holds: source semantics (matches Coq)
(declare-fun source_purpose_limitation_holds () Bool)
(declare-fun target_purpose_limitation_holds () Bool)
(assert (= source_purpose_limitation_holds target_purpose_limitation_holds))

; storage_limitation_holds: source semantics (matches Coq)
(declare-fun source_storage_limitation_holds () Bool)
(declare-fun target_storage_limitation_holds () Bool)
(assert (= source_storage_limitation_holds target_storage_limitation_holds))

; accuracy_holds: source semantics (matches Coq)
(declare-fun source_accuracy_holds () Bool)
(declare-fun target_accuracy_holds () Bool)
(assert (= source_accuracy_holds target_accuracy_holds))

; integrity_holds: source semantics (matches Coq)
(declare-fun source_integrity_holds () Bool)
(declare-fun target_integrity_holds () Bool)
(assert (= source_integrity_holds target_integrity_holds))

; access_right_holds: source semantics (matches Coq)
(declare-fun source_access_right_holds () Bool)
(declare-fun target_access_right_holds () Bool)
(assert (= source_access_right_holds target_access_right_holds))

; erasure_right_holds: source semantics (matches Coq)
(declare-fun source_erasure_right_holds () Bool)
(declare-fun target_erasure_right_holds () Bool)
(assert (= source_erasure_right_holds target_erasure_right_holds))

; portability_holds: source semantics (matches Coq)
(declare-fun source_portability_holds () Bool)
(declare-fun target_portability_holds () Bool)
(assert (= source_portability_holds target_portability_holds))

; consent_valid_holds: source semantics (matches Coq)
(declare-fun source_consent_valid_holds () Bool)
(declare-fun target_consent_valid_holds () Bool)
(assert (= source_consent_valid_holds target_consent_valid_holds))

; phi_protected: source semantics (matches Coq)
(declare-fun source_phi_protected () Bool)
(declare-fun target_phi_protected () Bool)
(assert (= source_phi_protected target_phi_protected))

; hipaa_access_control_holds: source semantics (matches Coq)
(declare-fun source_hipaa_access_control_holds () Bool)
(declare-fun target_hipaa_access_control_holds () Bool)
(assert (= source_hipaa_access_control_holds target_hipaa_access_control_holds))

; hipaa_audit_holds: source semantics (matches Coq)
(declare-fun source_hipaa_audit_holds () Bool)
(declare-fun target_hipaa_audit_holds () Bool)
(assert (= source_hipaa_audit_holds target_hipaa_audit_holds))

; minimum_necessary_holds: source semantics (matches Coq)
(declare-fun source_minimum_necessary_holds () Bool)
(declare-fun target_minimum_necessary_holds () Bool)
(assert (= source_minimum_necessary_holds target_minimum_necessary_holds))

; hipaa_encryption_holds: source semantics (matches Coq)
(declare-fun source_hipaa_encryption_holds () Bool)
(declare-fun target_hipaa_encryption_holds () Bool)
(assert (= source_hipaa_encryption_holds target_hipaa_encryption_holds))

; hipaa_integrity_holds: source semantics (matches Coq)
(declare-fun source_hipaa_integrity_holds () Bool)
(declare-fun target_hipaa_integrity_holds () Bool)
(assert (= source_hipaa_integrity_holds target_hipaa_integrity_holds))

; hipaa_availability_holds: source semantics (matches Coq)
(declare-fun source_hipaa_availability_holds () Bool)
(declare-fun target_hipaa_availability_holds () Bool)
(assert (= source_hipaa_availability_holds target_hipaa_availability_holds))

; breach_notification_holds: source semantics (matches Coq)
(declare-fun source_breach_notification_holds () Bool)
(declare-fun target_breach_notification_holds () Bool)
(assert (= source_breach_notification_holds target_breach_notification_holds))

; network_segmented_holds: source semantics (matches Coq)
(declare-fun source_network_segmented_holds () Bool)
(declare-fun target_network_segmented_holds () Bool)
(assert (= source_network_segmented_holds target_network_segmented_holds))

; chd_protected: source semantics (matches Coq)
(declare-fun source_chd_protected () Bool)
(declare-fun target_chd_protected () Bool)
(assert (= source_chd_protected target_chd_protected))

; pci_encryption_holds: source semantics (matches Coq)
(declare-fun source_pci_encryption_holds () Bool)
(declare-fun target_pci_encryption_holds () Bool)
(assert (= source_pci_encryption_holds target_pci_encryption_holds))

; access_restricted_holds: source semantics (matches Coq)
(declare-fun source_access_restricted_holds () Bool)
(declare-fun target_access_restricted_holds () Bool)
(assert (= source_access_restricted_holds target_access_restricted_holds))

; unique_ids_holds: source semantics (matches Coq)
(declare-fun source_unique_ids_holds () Bool)
(declare-fun target_unique_ids_holds () Bool)
(assert (= source_unique_ids_holds target_unique_ids_holds))

; physical_security_holds: source semantics (matches Coq)
(declare-fun source_physical_security_holds () Bool)
(declare-fun target_physical_security_holds () Bool)
(assert (= source_physical_security_holds target_physical_security_holds))

; logging_holds: source semantics (matches Coq)
(declare-fun source_logging_holds () Bool)
(declare-fun target_logging_holds () Bool)
(assert (= source_logging_holds target_logging_holds))

; testing_holds: source semantics (matches Coq)
(declare-fun source_testing_holds () Bool)
(declare-fun target_testing_holds () Bool)
(assert (= source_testing_holds target_testing_holds))

; control_mapping_complete_holds: source semantics (matches Coq)
(declare-fun source_control_mapping_complete_holds () Bool)
(declare-fun target_control_mapping_complete_holds () Bool)
(assert (= source_control_mapping_complete_holds target_control_mapping_complete_holds))

; evidence_chain_valid: source semantics (matches Coq)
(declare-fun source_evidence_chain_valid () Bool)
(declare-fun target_evidence_chain_valid () Bool)
(assert (= source_evidence_chain_valid target_evidence_chain_valid))

; continuous_monitoring_holds: source semantics (matches Coq)
(declare-fun source_continuous_monitoring_holds () Bool)
(declare-fun target_continuous_monitoring_holds () Bool)
(assert (= source_continuous_monitoring_holds target_continuous_monitoring_holds))

; proof_as_evidence_holds: source semantics (matches Coq)
(declare-fun source_proof_as_evidence_holds () Bool)
(declare-fun target_proof_as_evidence_holds () Bool)
(assert (= source_proof_as_evidence_holds target_proof_as_evidence_holds))

; audit_trail_complete_holds: source semantics (matches Coq)
(declare-fun source_audit_trail_complete_holds () Bool)
(declare-fun target_audit_trail_complete_holds () Bool)
(assert (= source_audit_trail_complete_holds target_audit_trail_complete_holds))

; compose_policies: source semantics (matches Coq)
(declare-fun source_compose_policies () Bool)
(declare-fun target_compose_policies () Bool)
(assert (= source_compose_policies target_compose_policies))

; policy_compliant_prop: source semantics (matches Coq)
(declare-fun source_policy_compliant_prop () Bool)
(declare-fun target_policy_compliant_prop () Bool)
(assert (= source_policy_compliant_prop target_policy_compliant_prop))

; regulation_coverage_holds: source semantics (matches Coq)
(declare-fun source_regulation_coverage_holds () Bool)
(declare-fun target_regulation_coverage_holds () Bool)
(assert (= source_regulation_coverage_holds target_regulation_coverage_holds))

; control_effectiveness_holds: source semantics (matches Coq)
(declare-fun source_control_effectiveness_holds () Bool)
(declare-fun target_control_effectiveness_holds () Bool)
(assert (= source_control_effectiveness_holds target_control_effectiveness_holds))

; gap_detection_holds: source semantics (matches Coq)
(declare-fun source_gap_detection_holds () Bool)
(declare-fun target_gap_detection_holds () Bool)
(assert (= source_gap_detection_holds target_gap_detection_holds))

; remediation_tracked_holds: source semantics (matches Coq)
(declare-fun source_remediation_tracked_holds () Bool)
(declare-fun target_remediation_tracked_holds () Bool)
(assert (= source_remediation_tracked_holds target_remediation_tracked_holds))

; make_compliant_store: source semantics (matches Coq)
(declare-fun source_make_compliant_store () Bool)
(declare-fun target_make_compliant_store () Bool)
(assert (= source_make_compliant_store target_make_compliant_store))

; make_system_phi: source semantics (matches Coq)
(declare-fun source_make_system_phi () Bool)
(declare-fun target_make_system_phi () Bool)
(assert (= source_make_system_phi target_make_system_phi))

; make_cde_chd: source semantics (matches Coq)
(declare-fun source_make_cde_chd () Bool)
(declare-fun target_make_cde_chd () Bool)
(assert (= source_make_cde_chd target_make_cde_chd))

; make_proven_control: source semantics (matches Coq)
(declare-fun source_make_proven_control () Bool)
(declare-fun target_make_proven_control () Bool)
(assert (= source_make_proven_control target_make_proven_control))

; make_compliant_policy: source semantics (matches Coq)
(declare-fun source_make_compliant_policy () Bool)
(declare-fun target_make_compliant_policy () Bool)
(assert (= source_make_compliant_policy target_make_compliant_policy))

; AJ_001_01_gdpr_data_minimization: translation preserves property (matches Coq: Theorem)
(declare-fun source_AJ_001_01_gdpr_data_minimization () Bool)
(declare-fun target_AJ_001_01_gdpr_data_minimization () Bool)
(assert (= source_AJ_001_01_gdpr_data_minimization target_AJ_001_01_gdpr_data_minimization))

; AJ_001_02_gdpr_purpose_limitation: translation preserves property (matches Coq: Theorem)
(declare-fun source_AJ_001_02_gdpr_purpose_limitation () Bool)
(declare-fun target_AJ_001_02_gdpr_purpose_limitation () Bool)
(assert (= source_AJ_001_02_gdpr_purpose_limitation target_AJ_001_02_gdpr_purpose_limitation))

; AJ_001_03_gdpr_storage_limitation: translation preserves property (matches Coq: Theorem)
(declare-fun source_AJ_001_03_gdpr_storage_limitation () Bool)
(declare-fun target_AJ_001_03_gdpr_storage_limitation () Bool)
(assert (= source_AJ_001_03_gdpr_storage_limitation target_AJ_001_03_gdpr_storage_limitation))

; AJ_001_04_gdpr_accuracy: translation preserves property (matches Coq: Theorem)
(declare-fun source_AJ_001_04_gdpr_accuracy () Bool)
(declare-fun target_AJ_001_04_gdpr_accuracy () Bool)
(assert (= source_AJ_001_04_gdpr_accuracy target_AJ_001_04_gdpr_accuracy))

; AJ_001_05_gdpr_integrity: translation preserves property (matches Coq: Theorem)
(declare-fun source_AJ_001_05_gdpr_integrity () Bool)
(declare-fun target_AJ_001_05_gdpr_integrity () Bool)
(assert (= source_AJ_001_05_gdpr_integrity target_AJ_001_05_gdpr_integrity))

; AJ_001_06_gdpr_access_right: translation preserves property (matches Coq: Theorem)
(declare-fun source_AJ_001_06_gdpr_access_right () Bool)
(declare-fun target_AJ_001_06_gdpr_access_right () Bool)
(assert (= source_AJ_001_06_gdpr_access_right target_AJ_001_06_gdpr_access_right))

; AJ_001_07_gdpr_erasure_right: translation preserves property (matches Coq: Theorem)
(declare-fun source_AJ_001_07_gdpr_erasure_right () Bool)
(declare-fun target_AJ_001_07_gdpr_erasure_right () Bool)
(assert (= source_AJ_001_07_gdpr_erasure_right target_AJ_001_07_gdpr_erasure_right))

; AJ_001_08_gdpr_portability: translation preserves property (matches Coq: Theorem)
(declare-fun source_AJ_001_08_gdpr_portability () Bool)
(declare-fun target_AJ_001_08_gdpr_portability () Bool)
(assert (= source_AJ_001_08_gdpr_portability target_AJ_001_08_gdpr_portability))

; AJ_001_09_gdpr_consent_valid: translation preserves property (matches Coq: Theorem)
(declare-fun source_AJ_001_09_gdpr_consent_valid () Bool)
(declare-fun target_AJ_001_09_gdpr_consent_valid () Bool)
(assert (= source_AJ_001_09_gdpr_consent_valid target_AJ_001_09_gdpr_consent_valid))

; AJ_001_10_hipaa_phi_protected: translation preserves property (matches Coq: Theorem)
(declare-fun source_AJ_001_10_hipaa_phi_protected () Bool)
(declare-fun target_AJ_001_10_hipaa_phi_protected () Bool)
(assert (= source_AJ_001_10_hipaa_phi_protected target_AJ_001_10_hipaa_phi_protected))

; AJ_001_11_hipaa_access_control: translation preserves property (matches Coq: Theorem)
(declare-fun source_AJ_001_11_hipaa_access_control () Bool)
(declare-fun target_AJ_001_11_hipaa_access_control () Bool)
(assert (= source_AJ_001_11_hipaa_access_control target_AJ_001_11_hipaa_access_control))

; AJ_001_12_hipaa_audit_controls: translation preserves property (matches Coq: Theorem)
(declare-fun source_AJ_001_12_hipaa_audit_controls () Bool)
(declare-fun target_AJ_001_12_hipaa_audit_controls () Bool)
(assert (= source_AJ_001_12_hipaa_audit_controls target_AJ_001_12_hipaa_audit_controls))

; AJ_001_13_hipaa_minimum_necessary: translation preserves property (matches Coq: Theorem)
(declare-fun source_AJ_001_13_hipaa_minimum_necessary () Bool)
(declare-fun target_AJ_001_13_hipaa_minimum_necessary () Bool)
(assert (= source_AJ_001_13_hipaa_minimum_necessary target_AJ_001_13_hipaa_minimum_necessary))

; AJ_001_14_hipaa_encryption: translation preserves property (matches Coq: Theorem)
(declare-fun source_AJ_001_14_hipaa_encryption () Bool)
(declare-fun target_AJ_001_14_hipaa_encryption () Bool)
(assert (= source_AJ_001_14_hipaa_encryption target_AJ_001_14_hipaa_encryption))

; AJ_001_15_hipaa_integrity: translation preserves property (matches Coq: Theorem)
(declare-fun source_AJ_001_15_hipaa_integrity () Bool)
(declare-fun target_AJ_001_15_hipaa_integrity () Bool)
(assert (= source_AJ_001_15_hipaa_integrity target_AJ_001_15_hipaa_integrity))

; AJ_001_16_hipaa_availability: translation preserves property (matches Coq: Theorem)
(declare-fun source_AJ_001_16_hipaa_availability () Bool)
(declare-fun target_AJ_001_16_hipaa_availability () Bool)
(assert (= source_AJ_001_16_hipaa_availability target_AJ_001_16_hipaa_availability))

; AJ_001_17_hipaa_breach_notification: translation preserves property (matches Coq: Theorem)
(declare-fun source_AJ_001_17_hipaa_breach_notification () Bool)
(declare-fun target_AJ_001_17_hipaa_breach_notification () Bool)
(assert (= source_AJ_001_17_hipaa_breach_notification target_AJ_001_17_hipaa_breach_notification))

; AJ_001_18_pci_network_segmentation: translation preserves property (matches Coq: Theorem)
(declare-fun source_AJ_001_18_pci_network_segmentation () Bool)
(declare-fun target_AJ_001_18_pci_network_segmentation () Bool)
(assert (= source_AJ_001_18_pci_network_segmentation target_AJ_001_18_pci_network_segmentation))

; AJ_001_19_pci_cardholder_protection: translation preserves property (matches Coq: Theorem)
(declare-fun source_AJ_001_19_pci_cardholder_protection () Bool)
(declare-fun target_AJ_001_19_pci_cardholder_protection () Bool)
(assert (= source_AJ_001_19_pci_cardholder_protection target_AJ_001_19_pci_cardholder_protection))

; AJ_001_20_pci_encryption: translation preserves property (matches Coq: Theorem)
(declare-fun source_AJ_001_20_pci_encryption () Bool)
(declare-fun target_AJ_001_20_pci_encryption () Bool)
(assert (= source_AJ_001_20_pci_encryption target_AJ_001_20_pci_encryption))

; AJ_001_21_pci_access_restricted: translation preserves property (matches Coq: Theorem)
(declare-fun source_AJ_001_21_pci_access_restricted () Bool)
(declare-fun target_AJ_001_21_pci_access_restricted () Bool)
(assert (= source_AJ_001_21_pci_access_restricted target_AJ_001_21_pci_access_restricted))

; AJ_001_22_pci_unique_ids: translation preserves property (matches Coq: Theorem)
(declare-fun source_AJ_001_22_pci_unique_ids () Bool)
(declare-fun target_AJ_001_22_pci_unique_ids () Bool)
(assert (= source_AJ_001_22_pci_unique_ids target_AJ_001_22_pci_unique_ids))

; AJ_001_23_pci_physical_security: translation preserves property (matches Coq: Theorem)
(declare-fun source_AJ_001_23_pci_physical_security () Bool)
(declare-fun target_AJ_001_23_pci_physical_security () Bool)
(assert (= source_AJ_001_23_pci_physical_security target_AJ_001_23_pci_physical_security))

; AJ_001_24_pci_logging: translation preserves property (matches Coq: Theorem)
(declare-fun source_AJ_001_24_pci_logging () Bool)
(declare-fun target_AJ_001_24_pci_logging () Bool)
(assert (= source_AJ_001_24_pci_logging target_AJ_001_24_pci_logging))

; AJ_001_25_pci_testing: translation preserves property (matches Coq: Theorem)
(declare-fun source_AJ_001_25_pci_testing () Bool)
(declare-fun target_AJ_001_25_pci_testing () Bool)
(assert (= source_AJ_001_25_pci_testing target_AJ_001_25_pci_testing))

; AJ_001_26_control_mapping_complete: translation preserves property (matches Coq: Theorem)
(declare-fun source_AJ_001_26_control_mapping_complete () Bool)
(declare-fun target_AJ_001_26_control_mapping_complete () Bool)
(assert (= source_AJ_001_26_control_mapping_complete target_AJ_001_26_control_mapping_complete))

; AJ_001_27_evidence_chain_valid: translation preserves property (matches Coq: Theorem)
(declare-fun source_AJ_001_27_evidence_chain_valid () Bool)
(declare-fun target_AJ_001_27_evidence_chain_valid () Bool)
(assert (= source_AJ_001_27_evidence_chain_valid target_AJ_001_27_evidence_chain_valid))

; AJ_001_28_continuous_monitoring: translation preserves property (matches Coq: Theorem)
(declare-fun source_AJ_001_28_continuous_monitoring () Bool)
(declare-fun target_AJ_001_28_continuous_monitoring () Bool)
(assert (= source_AJ_001_28_continuous_monitoring target_AJ_001_28_continuous_monitoring))

; AJ_001_29_proof_as_evidence: translation preserves property (matches Coq: Theorem)
(declare-fun source_AJ_001_29_proof_as_evidence () Bool)
(declare-fun target_AJ_001_29_proof_as_evidence () Bool)
(assert (= source_AJ_001_29_proof_as_evidence target_AJ_001_29_proof_as_evidence))

; AJ_001_30_audit_trail_complete: translation preserves property (matches Coq: Theorem)
(declare-fun source_AJ_001_30_audit_trail_complete () Bool)
(declare-fun target_AJ_001_30_audit_trail_complete () Bool)
(assert (= source_AJ_001_30_audit_trail_complete target_AJ_001_30_audit_trail_complete))

; AJ_001_31_compliance_composition: translation preserves property (matches Coq: Theorem)
(declare-fun source_AJ_001_31_compliance_composition () Bool)
(declare-fun target_AJ_001_31_compliance_composition () Bool)
(assert (= source_AJ_001_31_compliance_composition target_AJ_001_31_compliance_composition))

; AJ_001_32_regulation_coverage: translation preserves property (matches Coq: Theorem)
(declare-fun source_AJ_001_32_regulation_coverage () Bool)
(declare-fun target_AJ_001_32_regulation_coverage () Bool)
(assert (= source_AJ_001_32_regulation_coverage target_AJ_001_32_regulation_coverage))

; AJ_001_33_control_effectiveness: translation preserves property (matches Coq: Theorem)
(declare-fun source_AJ_001_33_control_effectiveness () Bool)
(declare-fun target_AJ_001_33_control_effectiveness () Bool)
(assert (= source_AJ_001_33_control_effectiveness target_AJ_001_33_control_effectiveness))

; AJ_001_34_gap_detection: translation preserves property (matches Coq: Theorem)
(declare-fun source_AJ_001_34_gap_detection () Bool)
(declare-fun target_AJ_001_34_gap_detection () Bool)
(assert (= source_AJ_001_34_gap_detection target_AJ_001_34_gap_detection))

; AJ_001_35_remediation_tracked: translation preserves property (matches Coq: Theorem)
(declare-fun source_AJ_001_35_remediation_tracked () Bool)
(declare-fun target_AJ_001_35_remediation_tracked () Bool)
(assert (= source_AJ_001_35_remediation_tracked target_AJ_001_35_remediation_tracked))

; Verify all translation validations are satisfiable
(check-sat)
(exit)
